\ Model _copy
\ LP format - for model browsing. Use MPS format to capture full model detail.
Maximize
 
Subject To
 R863:
   y_Universidad_Católica_CEB_Puerto_Montt_1_Gimnasio_Colegio_Los_Leones_2
   + y_Universidad_Católica_CEB_Puerto_Montt_1_Gimnasio_Regional_de_Talca_2
   + y_Universidad_Católica_CEB_Puerto_Montt_1_Gimnasio_Municipal_de_San_Fernando_2
   + y_Universidad_Católica_CEB_Puerto_Montt_1_Estadio_Palestino_2
   + y_Universidad_Católica_CEB_Puerto_Montt_1_Casa_del_Deporte_2
   + y_Universidad_Católica_CEB_Puerto_Montt_1_Gimnasio_Municipal_de_Puente_Alto_2
   + y_Universidad_Católica_CEB_Puerto_Montt_1_Coliseo_Municipal_Antonio_Azurmendy_2
   + y_Universidad_Católica_CEB_Puerto_Montt_1_Gimnasio_Fiscal_de_Ancud_2
   + y_Universidad_Católica_CEB_Puerto_Montt_1_Gimnasio_Monumental_María_Gallardo_2
   + y_Universidad_Católica_CEB_Puerto_Montt_1_Gimnasio_Fiscal_de_Castro_2
   + y_Universidad_Católica_CEB_Puerto_Montt_1_Gimnasio_de_Las_Ánimas_2
   + y_Universidad_Católica_CEB_Puerto_Montt_1_Gimnasio_Municipal_Mario_Merchant_Binder_2
   <= 0.5
 R866:
   y_Universidad_Católica_CEB_Puerto_Montt_2_Gimnasio_Colegio_Los_Leones_2
   + y_Universidad_Católica_CEB_Puerto_Montt_2_Gimnasio_Regional_de_Talca_2
   + y_Universidad_Católica_CEB_Puerto_Montt_2_Gimnasio_Municipal_de_San_Fernando_2
   + y_Universidad_Católica_CEB_Puerto_Montt_2_Estadio_Palestino_2
   + y_Universidad_Católica_CEB_Puerto_Montt_2_Casa_del_Deporte_2
   + y_Universidad_Católica_CEB_Puerto_Montt_2_Gimnasio_Municipal_de_Puente_Alto_2
   + y_Universidad_Católica_CEB_Puerto_Montt_2_Coliseo_Municipal_Antonio_Azurmendy_2
   + y_Universidad_Católica_CEB_Puerto_Montt_2_Gimnasio_Fiscal_de_Ancud_2
   + y_Universidad_Católica_CEB_Puerto_Montt_2_Gimnasio_Monumental_María_Gallardo_2
   + y_Universidad_Católica_CEB_Puerto_Montt_2_Gimnasio_Fiscal_de_Castro_2
   + y_Universidad_Católica_CEB_Puerto_Montt_2_Gimnasio_de_Las_Ánimas_2
   + y_Universidad_Católica_CEB_Puerto_Montt_2_Gimnasio_Municipal_Mario_Merchant_Binder_2
   <= 0.5
 R870:
   y_Universidad_Católica_CEB_Puerto_Montt_3_Gimnasio_Colegio_Los_Leones_2
   + y_Universidad_Católica_CEB_Puerto_Montt_3_Gimnasio_Regional_de_Talca_2
   + y_Universidad_Católica_CEB_Puerto_Montt_3_Gimnasio_Municipal_de_San_Fernando_2
   + y_Universidad_Católica_CEB_Puerto_Montt_3_Estadio_Palestino_2
   + y_Universidad_Católica_CEB_Puerto_Montt_3_Casa_del_Deporte_2
   + y_Universidad_Católica_CEB_Puerto_Montt_3_Gimnasio_Municipal_de_Puente_Alto_2
   + y_Universidad_Católica_CEB_Puerto_Montt_3_Coliseo_Municipal_Antonio_Azurmendy_2
   + y_Universidad_Católica_CEB_Puerto_Montt_3_Gimnasio_Fiscal_de_Ancud_2
   + y_Universidad_Católica_CEB_Puerto_Montt_3_Gimnasio_Monumental_María_Gallardo_2
   + y_Universidad_Católica_CEB_Puerto_Montt_3_Gimnasio_Fiscal_de_Castro_2
   + y_Universidad_Católica_CEB_Puerto_Montt_3_Gimnasio_de_Las_Ánimas_2
   + y_Universidad_Católica_CEB_Puerto_Montt_3_Gimnasio_Municipal_Mario_Merchant_Binder_2
   <= 0.5
 R875:
   y_Universidad_Católica_CEB_Puerto_Montt_4_Gimnasio_Colegio_Los_Leones_2
   + y_Universidad_Católica_CEB_Puerto_Montt_4_Gimnasio_Regional_de_Talca_2
   + y_Universidad_Católica_CEB_Puerto_Montt_4_Gimnasio_Municipal_de_San_Fernando_2
   + y_Universidad_Católica_CEB_Puerto_Montt_4_Estadio_Palestino_2
   + y_Universidad_Católica_CEB_Puerto_Montt_4_Casa_del_Deporte_2
   + y_Universidad_Católica_CEB_Puerto_Montt_4_Gimnasio_Municipal_de_Puente_Alto_2
   + y_Universidad_Católica_CEB_Puerto_Montt_4_Coliseo_Municipal_Antonio_Azurmendy_2
   + y_Universidad_Católica_CEB_Puerto_Montt_4_Gimnasio_Fiscal_de_Ancud_2
   + y_Universidad_Católica_CEB_Puerto_Montt_4_Gimnasio_Monumental_María_Gallardo_2
   + y_Universidad_Católica_CEB_Puerto_Montt_4_Gimnasio_Fiscal_de_Castro_2
   + y_Universidad_Católica_CEB_Puerto_Montt_4_Gimnasio_de_Las_Ánimas_2
   + y_Universidad_Católica_CEB_Puerto_Montt_4_Gimnasio_Municipal_Mario_Merchant_Binder_2
   <= 0.5
 R878:
   y_Universidad_Católica_CEB_Puerto_Montt_5_Gimnasio_Colegio_Los_Leones_2
   + y_Universidad_Católica_CEB_Puerto_Montt_5_Gimnasio_Regional_de_Talca_2
   + y_Universidad_Católica_CEB_Puerto_Montt_5_Gimnasio_Municipal_de_San_Fernando_2
   + y_Universidad_Católica_CEB_Puerto_Montt_5_Estadio_Palestino_2
   + y_Universidad_Católica_CEB_Puerto_Montt_5_Casa_del_Deporte_2
   + y_Universidad_Católica_CEB_Puerto_Montt_5_Gimnasio_Municipal_de_Puente_Alto_2
   + y_Universidad_Católica_CEB_Puerto_Montt_5_Coliseo_Municipal_Antonio_Azurmendy_2
   + y_Universidad_Católica_CEB_Puerto_Montt_5_Gimnasio_Fiscal_de_Ancud_2
   + y_Universidad_Católica_CEB_Puerto_Montt_5_Gimnasio_Monumental_María_Gallardo_2
   + y_Universidad_Católica_CEB_Puerto_Montt_5_Gimnasio_Fiscal_de_Castro_2
   + y_Universidad_Católica_CEB_Puerto_Montt_5_Gimnasio_de_Las_Ánimas_2
   + y_Universidad_Católica_CEB_Puerto_Montt_5_Gimnasio_Municipal_Mario_Merchant_Binder_2
   <= 0.5
 R2482:
   y_CEB_Puerto_Montt_Universidad_Católica_1_Gimnasio_Colegio_Los_Leones_2
   + y_CEB_Puerto_Montt_Universidad_Católica_1_Gimnasio_Regional_de_Talca_2
   + y_CEB_Puerto_Montt_Universidad_Católica_1_Gimnasio_Municipal_de_San_Fernando_2
   + y_CEB_Puerto_Montt_Universidad_Católica_1_Estadio_Palestino_2
   + y_CEB_Puerto_Montt_Universidad_Católica_1_Casa_del_Deporte_2
   + y_CEB_Puerto_Montt_Universidad_Católica_1_Gimnasio_Municipal_de_Puente_Alto_2
   + y_CEB_Puerto_Montt_Universidad_Católica_1_Coliseo_Municipal_Antonio_Azurmendy_2
   + y_CEB_Puerto_Montt_Universidad_Católica_1_Gimnasio_Fiscal_de_Ancud_2
   + y_CEB_Puerto_Montt_Universidad_Católica_1_Gimnasio_Monumental_María_Gallardo_2
   + y_CEB_Puerto_Montt_Universidad_Católica_1_Gimnasio_Fiscal_de_Castro_2
   + y_CEB_Puerto_Montt_Universidad_Católica_1_Gimnasio_de_Las_Ánimas_2
   + y_CEB_Puerto_Montt_Universidad_Católica_1_Gimnasio_Municipal_Mario_Merchant_Binder_2
   <= 0.5
 R2486:
   y_CEB_Puerto_Montt_Universidad_Católica_2_Gimnasio_Colegio_Los_Leones_2
   + y_CEB_Puerto_Montt_Universidad_Católica_2_Gimnasio_Regional_de_Talca_2
   + y_CEB_Puerto_Montt_Universidad_Católica_2_Gimnasio_Municipal_de_San_Fernando_2
   + y_CEB_Puerto_Montt_Universidad_Católica_2_Estadio_Palestino_2
   + y_CEB_Puerto_Montt_Universidad_Católica_2_Casa_del_Deporte_2
   + y_CEB_Puerto_Montt_Universidad_Católica_2_Gimnasio_Municipal_de_Puente_Alto_2
   + y_CEB_Puerto_Montt_Universidad_Católica_2_Coliseo_Municipal_Antonio_Azurmendy_2
   + y_CEB_Puerto_Montt_Universidad_Católica_2_Gimnasio_Fiscal_de_Ancud_2
   + y_CEB_Puerto_Montt_Universidad_Católica_2_Gimnasio_Monumental_María_Gallardo_2
   + y_CEB_Puerto_Montt_Universidad_Católica_2_Gimnasio_Fiscal_de_Castro_2
   + y_CEB_Puerto_Montt_Universidad_Católica_2_Gimnasio_de_Las_Ánimas_2
   + y_CEB_Puerto_Montt_Universidad_Católica_2_Gimnasio_Municipal_Mario_Merchant_Binder_2
   <= 0.5
 R2490:
   y_CEB_Puerto_Montt_Universidad_Católica_3_Gimnasio_Colegio_Los_Leones_2
   + y_CEB_Puerto_Montt_Universidad_Católica_3_Gimnasio_Regional_de_Talca_2
   + y_CEB_Puerto_Montt_Universidad_Católica_3_Gimnasio_Municipal_de_San_Fernando_2
   + y_CEB_Puerto_Montt_Universidad_Católica_3_Estadio_Palestino_2
   + y_CEB_Puerto_Montt_Universidad_Católica_3_Casa_del_Deporte_2
   + y_CEB_Puerto_Montt_Universidad_Católica_3_Gimnasio_Municipal_de_Puente_Alto_2
   + y_CEB_Puerto_Montt_Universidad_Católica_3_Coliseo_Municipal_Antonio_Azurmendy_2
   + y_CEB_Puerto_Montt_Universidad_Católica_3_Gimnasio_Fiscal_de_Ancud_2
   + y_CEB_Puerto_Montt_Universidad_Católica_3_Gimnasio_Monumental_María_Gallardo_2
   + y_CEB_Puerto_Montt_Universidad_Católica_3_Gimnasio_Fiscal_de_Castro_2
   + y_CEB_Puerto_Montt_Universidad_Católica_3_Gimnasio_de_Las_Ánimas_2
   + y_CEB_Puerto_Montt_Universidad_Católica_3_Gimnasio_Municipal_Mario_Merchant_Binder_2
   <= 0.5
 R2495:
   y_CEB_Puerto_Montt_Universidad_Católica_4_Gimnasio_Colegio_Los_Leones_2
   + y_CEB_Puerto_Montt_Universidad_Católica_4_Gimnasio_Regional_de_Talca_2
   + y_CEB_Puerto_Montt_Universidad_Católica_4_Gimnasio_Municipal_de_San_Fernando_2
   + y_CEB_Puerto_Montt_Universidad_Católica_4_Estadio_Palestino_2
   + y_CEB_Puerto_Montt_Universidad_Católica_4_Casa_del_Deporte_2
   + y_CEB_Puerto_Montt_Universidad_Católica_4_Gimnasio_Municipal_de_Puente_Alto_2
   + y_CEB_Puerto_Montt_Universidad_Católica_4_Coliseo_Municipal_Antonio_Azurmendy_2
   + y_CEB_Puerto_Montt_Universidad_Católica_4_Gimnasio_Fiscal_de_Ancud_2
   + y_CEB_Puerto_Montt_Universidad_Católica_4_Gimnasio_Monumental_María_Gallardo_2
   + y_CEB_Puerto_Montt_Universidad_Católica_4_Gimnasio_Fiscal_de_Castro_2
   + y_CEB_Puerto_Montt_Universidad_Católica_4_Gimnasio_de_Las_Ánimas_2
   + y_CEB_Puerto_Montt_Universidad_Católica_4_Gimnasio_Municipal_Mario_Merchant_Binder_2
   <= 0.5
 R2498:
   y_CEB_Puerto_Montt_Universidad_Católica_5_Gimnasio_Colegio_Los_Leones_2
   + y_CEB_Puerto_Montt_Universidad_Católica_5_Gimnasio_Regional_de_Talca_2
   + y_CEB_Puerto_Montt_Universidad_Católica_5_Gimnasio_Municipal_de_San_Fernando_2
   + y_CEB_Puerto_Montt_Universidad_Católica_5_Estadio_Palestino_2
   + y_CEB_Puerto_Montt_Universidad_Católica_5_Casa_del_Deporte_2
   + y_CEB_Puerto_Montt_Universidad_Católica_5_Gimnasio_Municipal_de_Puente_Alto_2
   + y_CEB_Puerto_Montt_Universidad_Católica_5_Coliseo_Municipal_Antonio_Azurmendy_2
   + y_CEB_Puerto_Montt_Universidad_Católica_5_Gimnasio_Fiscal_de_Ancud_2
   + y_CEB_Puerto_Montt_Universidad_Católica_5_Gimnasio_Monumental_María_Gallardo_2
   + y_CEB_Puerto_Montt_Universidad_Católica_5_Gimnasio_Fiscal_de_Castro_2
   + y_CEB_Puerto_Montt_Universidad_Católica_5_Gimnasio_de_Las_Ánimas_2
   + y_CEB_Puerto_Montt_Universidad_Católica_5_Gimnasio_Municipal_Mario_Merchant_Binder_2
   <= 0.5
 R2815:
   y_Universidad_Católica_CEB_Puerto_Montt_1_Gimnasio_Colegio_Los_Leones_2
   + y_Universidad_Católica_CEB_Puerto_Montt_1_Gimnasio_Regional_de_Talca_2
   + y_Universidad_Católica_CEB_Puerto_Montt_1_Gimnasio_Municipal_de_San_Fernando_2
   + y_Universidad_Católica_CEB_Puerto_Montt_1_Estadio_Palestino_2
   + y_Universidad_Católica_CEB_Puerto_Montt_1_Casa_del_Deporte_2
   + y_Universidad_Católica_CEB_Puerto_Montt_1_Gimnasio_Municipal_de_Puente_Alto_2
   + y_Universidad_Católica_CEB_Puerto_Montt_1_Coliseo_Municipal_Antonio_Azurmendy_2
   + y_Universidad_Católica_CEB_Puerto_Montt_1_Gimnasio_Fiscal_de_Ancud_2
   + y_Universidad_Católica_CEB_Puerto_Montt_1_Gimnasio_Monumental_María_Gallardo_2
   + y_Universidad_Católica_CEB_Puerto_Montt_1_Gimnasio_Fiscal_de_Castro_2
   + y_Universidad_Católica_CEB_Puerto_Montt_1_Gimnasio_de_Las_Ánimas_2
   + y_Universidad_Católica_CEB_Puerto_Montt_1_Gimnasio_Municipal_Mario_Merchant_Binder_2
   + y_Universidad_Católica_CEB_Puerto_Montt_2_Gimnasio_Colegio_Los_Leones_2
   + y_Universidad_Católica_CEB_Puerto_Montt_2_Gimnasio_Regional_de_Talca_2
   + y_Universidad_Católica_CEB_Puerto_Montt_2_Gimnasio_Municipal_de_San_Fernando_2
   + y_Universidad_Católica_CEB_Puerto_Montt_2_Estadio_Palestino_2
   + y_Universidad_Católica_CEB_Puerto_Montt_2_Casa_del_Deporte_2
   + y_Universidad_Católica_CEB_Puerto_Montt_2_Gimnasio_Municipal_de_Puente_Alto_2
   + y_Universidad_Católica_CEB_Puerto_Montt_2_Coliseo_Municipal_Antonio_Azurmendy_2
   + y_Universidad_Católica_CEB_Puerto_Montt_2_Gimnasio_Fiscal_de_Ancud_2
   + y_Universidad_Católica_CEB_Puerto_Montt_2_Gimnasio_Monumental_María_Gallardo_2
   + y_Universidad_Católica_CEB_Puerto_Montt_2_Gimnasio_Fiscal_de_Castro_2
   + y_Universidad_Católica_CEB_Puerto_Montt_2_Gimnasio_de_Las_Ánimas_2
   + y_Universidad_Católica_CEB_Puerto_Montt_2_Gimnasio_Municipal_Mario_Merchant_Binder_2
   + y_Universidad_Católica_CEB_Puerto_Montt_3_Gimnasio_Colegio_Los_Leones_2
   + y_Universidad_Católica_CEB_Puerto_Montt_3_Gimnasio_Regional_de_Talca_2
   + y_Universidad_Católica_CEB_Puerto_Montt_3_Gimnasio_Municipal_de_San_Fernando_2
   + y_Universidad_Católica_CEB_Puerto_Montt_3_Estadio_Palestino_2
   + y_Universidad_Católica_CEB_Puerto_Montt_3_Casa_del_Deporte_2
   + y_Universidad_Católica_CEB_Puerto_Montt_3_Gimnasio_Municipal_de_Puente_Alto_2
   + y_Universidad_Católica_CEB_Puerto_Montt_3_Coliseo_Municipal_Antonio_Azurmendy_2
   + y_Universidad_Católica_CEB_Puerto_Montt_3_Gimnasio_Fiscal_de_Ancud_2
   + y_Universidad_Católica_CEB_Puerto_Montt_3_Gimnasio_Monumental_María_Gallardo_2
   + y_Universidad_Católica_CEB_Puerto_Montt_3_Gimnasio_Fiscal_de_Castro_2
   + y_Universidad_Católica_CEB_Puerto_Montt_3_Gimnasio_de_Las_Ánimas_2
   + y_Universidad_Católica_CEB_Puerto_Montt_3_Gimnasio_Municipal_Mario_Merchant_Binder_2
   + y_Universidad_Católica_CEB_Puerto_Montt_4_Gimnasio_Colegio_Los_Leones_2
   + y_Universidad_Católica_CEB_Puerto_Montt_4_Gimnasio_Regional_de_Talca_2
   + y_Universidad_Católica_CEB_Puerto_Montt_4_Gimnasio_Municipal_de_San_Fernando_2
   + y_Universidad_Católica_CEB_Puerto_Montt_4_Estadio_Palestino_2
   + y_Universidad_Católica_CEB_Puerto_Montt_4_Casa_del_Deporte_2
   + y_Universidad_Católica_CEB_Puerto_Montt_4_Gimnasio_Municipal_de_Puente_Alto_2
   + y_Universidad_Católica_CEB_Puerto_Montt_4_Coliseo_Municipal_Antonio_Azurmendy_2
   + y_Universidad_Católica_CEB_Puerto_Montt_4_Gimnasio_Fiscal_de_Ancud_2
   + y_Universidad_Católica_CEB_Puerto_Montt_4_Gimnasio_Monumental_María_Gallardo_2
   + y_Universidad_Católica_CEB_Puerto_Montt_4_Gimnasio_Fiscal_de_Castro_2
   + y_Universidad_Católica_CEB_Puerto_Montt_4_Gimnasio_de_Las_Ánimas_2
   + y_Universidad_Católica_CEB_Puerto_Montt_4_Gimnasio_Municipal_Mario_Merchant_Binder_2
   + y_Universidad_Católica_CEB_Puerto_Montt_5_Gimnasio_Colegio_Los_Leones_2
   + y_Universidad_Católica_CEB_Puerto_Montt_5_Gimnasio_Regional_de_Talca_2
   + y_Universidad_Católica_CEB_Puerto_Montt_5_Gimnasio_Municipal_de_San_Fernando_2
   + y_Universidad_Católica_CEB_Puerto_Montt_5_Estadio_Palestino_2
   + y_Universidad_Católica_CEB_Puerto_Montt_5_Casa_del_Deporte_2
   + y_Universidad_Católica_CEB_Puerto_Montt_5_Gimnasio_Municipal_de_Puente_Alto_2
   + y_Universidad_Católica_CEB_Puerto_Montt_5_Coliseo_Municipal_Antonio_Azurmendy_2
   + y_Universidad_Católica_CEB_Puerto_Montt_5_Gimnasio_Fiscal_de_Ancud_2
   + y_Universidad_Católica_CEB_Puerto_Montt_5_Gimnasio_Monumental_María_Gallardo_2
   + y_Universidad_Católica_CEB_Puerto_Montt_5_Gimnasio_Fiscal_de_Castro_2
   + y_Universidad_Católica_CEB_Puerto_Montt_5_Gimnasio_de_Las_Ánimas_2
   + y_Universidad_Católica_CEB_Puerto_Montt_5_Gimnasio_Municipal_Mario_Merchant_Binder_2
   + y_CEB_Puerto_Montt_Universidad_Católica_1_Gimnasio_Colegio_Los_Leones_2
   + y_CEB_Puerto_Montt_Universidad_Católica_1_Gimnasio_Regional_de_Talca_2
   + y_CEB_Puerto_Montt_Universidad_Católica_1_Gimnasio_Municipal_de_San_Fernando_2
   + y_CEB_Puerto_Montt_Universidad_Católica_1_Estadio_Palestino_2
   + y_CEB_Puerto_Montt_Universidad_Católica_1_Casa_del_Deporte_2
   + y_CEB_Puerto_Montt_Universidad_Católica_1_Gimnasio_Municipal_de_Puente_Alto_2
   + y_CEB_Puerto_Montt_Universidad_Católica_1_Coliseo_Municipal_Antonio_Azurmendy_2
   + y_CEB_Puerto_Montt_Universidad_Católica_1_Gimnasio_Fiscal_de_Ancud_2
   + y_CEB_Puerto_Montt_Universidad_Católica_1_Gimnasio_Monumental_María_Gallardo_2
   + y_CEB_Puerto_Montt_Universidad_Católica_1_Gimnasio_Fiscal_de_Castro_2
   + y_CEB_Puerto_Montt_Universidad_Católica_1_Gimnasio_de_Las_Ánimas_2
   + y_CEB_Puerto_Montt_Universidad_Católica_1_Gimnasio_Municipal_Mario_Merchant_Binder_2
   + y_CEB_Puerto_Montt_Universidad_Católica_2_Gimnasio_Colegio_Los_Leones_2
   + y_CEB_Puerto_Montt_Universidad_Católica_2_Gimnasio_Regional_de_Talca_2
   + y_CEB_Puerto_Montt_Universidad_Católica_2_Gimnasio_Municipal_de_San_Fernando_2
   + y_CEB_Puerto_Montt_Universidad_Católica_2_Estadio_Palestino_2
   + y_CEB_Puerto_Montt_Universidad_Católica_2_Casa_del_Deporte_2
   + y_CEB_Puerto_Montt_Universidad_Católica_2_Gimnasio_Municipal_de_Puente_Alto_2
   + y_CEB_Puerto_Montt_Universidad_Católica_2_Coliseo_Municipal_Antonio_Azurmendy_2
   + y_CEB_Puerto_Montt_Universidad_Católica_2_Gimnasio_Fiscal_de_Ancud_2
   + y_CEB_Puerto_Montt_Universidad_Católica_2_Gimnasio_Monumental_María_Gallardo_2
   + y_CEB_Puerto_Montt_Universidad_Católica_2_Gimnasio_Fiscal_de_Castro_2
   + y_CEB_Puerto_Montt_Universidad_Católica_2_Gimnasio_de_Las_Ánimas_2
   + y_CEB_Puerto_Montt_Universidad_Católica_2_Gimnasio_Municipal_Mario_Merchant_Binder_2
   + y_CEB_Puerto_Montt_Universidad_Católica_3_Gimnasio_Colegio_Los_Leones_2
   + y_CEB_Puerto_Montt_Universidad_Católica_3_Gimnasio_Regional_de_Talca_2
   + y_CEB_Puerto_Montt_Universidad_Católica_3_Gimnasio_Municipal_de_San_Fernando_2
   + y_CEB_Puerto_Montt_Universidad_Católica_3_Estadio_Palestino_2
   + y_CEB_Puerto_Montt_Universidad_Católica_3_Casa_del_Deporte_2
   + y_CEB_Puerto_Montt_Universidad_Católica_3_Gimnasio_Municipal_de_Puente_Alto_2
   + y_CEB_Puerto_Montt_Universidad_Católica_3_Coliseo_Municipal_Antonio_Azurmendy_2
   + y_CEB_Puerto_Montt_Universidad_Católica_3_Gimnasio_Fiscal_de_Ancud_2
   + y_CEB_Puerto_Montt_Universidad_Católica_3_Gimnasio_Monumental_María_Gallardo_2
   + y_CEB_Puerto_Montt_Universidad_Católica_3_Gimnasio_Fiscal_de_Castro_2
   + y_CEB_Puerto_Montt_Universidad_Católica_3_Gimnasio_de_Las_Ánimas_2
   + y_CEB_Puerto_Montt_Universidad_Católica_3_Gimnasio_Municipal_Mario_Merchant_Binder_2
   + y_CEB_Puerto_Montt_Universidad_Católica_4_Gimnasio_Colegio_Los_Leones_2
   + y_CEB_Puerto_Montt_Universidad_Católica_4_Gimnasio_Regional_de_Talca_2
   + y_CEB_Puerto_Montt_Universidad_Católica_4_Gimnasio_Municipal_de_San_Fernando_2
   + y_CEB_Puerto_Montt_Universidad_Católica_4_Estadio_Palestino_2
   + y_CEB_Puerto_Montt_Universidad_Católica_4_Casa_del_Deporte_2
   + y_CEB_Puerto_Montt_Universidad_Católica_4_Gimnasio_Municipal_de_Puente_Alto_2
   + y_CEB_Puerto_Montt_Universidad_Católica_4_Coliseo_Municipal_Antonio_Azurmendy_2
   + y_CEB_Puerto_Montt_Universidad_Católica_4_Gimnasio_Fiscal_de_Ancud_2
   + y_CEB_Puerto_Montt_Universidad_Católica_4_Gimnasio_Monumental_María_Gallardo_2
   + y_CEB_Puerto_Montt_Universidad_Católica_4_Gimnasio_Fiscal_de_Castro_2
   + y_CEB_Puerto_Montt_Universidad_Católica_4_Gimnasio_de_Las_Ánimas_2
   + y_CEB_Puerto_Montt_Universidad_Católica_4_Gimnasio_Municipal_Mario_Merchant_Binder_2
   + y_CEB_Puerto_Montt_Universidad_Católica_5_Gimnasio_Colegio_Los_Leones_2
   + y_CEB_Puerto_Montt_Universidad_Católica_5_Gimnasio_Regional_de_Talca_2
   + y_CEB_Puerto_Montt_Universidad_Católica_5_Gimnasio_Municipal_de_San_Fernando_2
   + y_CEB_Puerto_Montt_Universidad_Católica_5_Estadio_Palestino_2
   + y_CEB_Puerto_Montt_Universidad_Católica_5_Casa_del_Deporte_2
   + y_CEB_Puerto_Montt_Universidad_Católica_5_Gimnasio_Municipal_de_Puente_Alto_2
   + y_CEB_Puerto_Montt_Universidad_Católica_5_Coliseo_Municipal_Antonio_Azurmendy_2
   + y_CEB_Puerto_Montt_Universidad_Católica_5_Gimnasio_Fiscal_de_Ancud_2
   + y_CEB_Puerto_Montt_Universidad_Católica_5_Gimnasio_Monumental_María_Gallardo_2
   + y_CEB_Puerto_Montt_Universidad_Católica_5_Gimnasio_Fiscal_de_Castro_2
   + y_CEB_Puerto_Montt_Universidad_Católica_5_Gimnasio_de_Las_Ánimas_2
   + y_CEB_Puerto_Montt_Universidad_Católica_5_Gimnasio_Municipal_Mario_Merchant_Binder_2
   = 1
Bounds
Binaries
 y_Universidad_Católica_CEB_Puerto_Montt_1_Gimnasio_Colegio_Los_Leones_2
 y_Universidad_Católica_CEB_Puerto_Montt_1_Gimnasio_Regional_de_Talca_2
 y_Universidad_Católica_CEB_Puerto_Montt_1_Gimnasio_Municipal_de_San_Fernando_2
 y_Universidad_Católica_CEB_Puerto_Montt_1_Estadio_Palestino_2
 y_Universidad_Católica_CEB_Puerto_Montt_1_Casa_del_Deporte_2
 y_Universidad_Católica_CEB_Puerto_Montt_1_Gimnasio_Municipal_de_Puente_Alto_2
 y_Universidad_Católica_CEB_Puerto_Montt_1_Coliseo_Municipal_Antonio_Azurmendy_2
 y_Universidad_Católica_CEB_Puerto_Montt_1_Gimnasio_Fiscal_de_Ancud_2
 y_Universidad_Católica_CEB_Puerto_Montt_1_Gimnasio_Monumental_María_Gallardo_2
 y_Universidad_Católica_CEB_Puerto_Montt_1_Gimnasio_Fiscal_de_Castro_2
 y_Universidad_Católica_CEB_Puerto_Montt_1_Gimnasio_de_Las_Ánimas_2
 y_Universidad_Católica_CEB_Puerto_Montt_1_Gimnasio_Municipal_Mario_Merchant_Binder_2
 y_Universidad_Católica_CEB_Puerto_Montt_2_Gimnasio_Colegio_Los_Leones_2
 y_Universidad_Católica_CEB_Puerto_Montt_2_Gimnasio_Regional_de_Talca_2
 y_Universidad_Católica_CEB_Puerto_Montt_2_Gimnasio_Municipal_de_San_Fernando_2
 y_Universidad_Católica_CEB_Puerto_Montt_2_Estadio_Palestino_2
 y_Universidad_Católica_CEB_Puerto_Montt_2_Casa_del_Deporte_2
 y_Universidad_Católica_CEB_Puerto_Montt_2_Gimnasio_Municipal_de_Puente_Alto_2
 y_Universidad_Católica_CEB_Puerto_Montt_2_Coliseo_Municipal_Antonio_Azurmendy_2
 y_Universidad_Católica_CEB_Puerto_Montt_2_Gimnasio_Fiscal_de_Ancud_2
 y_Universidad_Católica_CEB_Puerto_Montt_2_Gimnasio_Monumental_María_Gallardo_2
 y_Universidad_Católica_CEB_Puerto_Montt_2_Gimnasio_Fiscal_de_Castro_2
 y_Universidad_Católica_CEB_Puerto_Montt_2_Gimnasio_de_Las_Ánimas_2
 y_Universidad_Católica_CEB_Puerto_Montt_2_Gimnasio_Municipal_Mario_Merchant_Binder_2
 y_Universidad_Católica_CEB_Puerto_Montt_3_Gimnasio_Colegio_Los_Leones_2
 y_Universidad_Católica_CEB_Puerto_Montt_3_Gimnasio_Regional_de_Talca_2
 y_Universidad_Católica_CEB_Puerto_Montt_3_Gimnasio_Municipal_de_San_Fernando_2
 y_Universidad_Católica_CEB_Puerto_Montt_3_Estadio_Palestino_2
 y_Universidad_Católica_CEB_Puerto_Montt_3_Casa_del_Deporte_2
 y_Universidad_Católica_CEB_Puerto_Montt_3_Gimnasio_Municipal_de_Puente_Alto_2
 y_Universidad_Católica_CEB_Puerto_Montt_3_Coliseo_Municipal_Antonio_Azurmendy_2
 y_Universidad_Católica_CEB_Puerto_Montt_3_Gimnasio_Fiscal_de_Ancud_2
 y_Universidad_Católica_CEB_Puerto_Montt_3_Gimnasio_Monumental_María_Gallardo_2
 y_Universidad_Católica_CEB_Puerto_Montt_3_Gimnasio_Fiscal_de_Castro_2
 y_Universidad_Católica_CEB_Puerto_Montt_3_Gimnasio_de_Las_Ánimas_2
 y_Universidad_Católica_CEB_Puerto_Montt_3_Gimnasio_Municipal_Mario_Merchant_Binder_2
 y_Universidad_Católica_CEB_Puerto_Montt_4_Gimnasio_Colegio_Los_Leones_2
 y_Universidad_Católica_CEB_Puerto_Montt_4_Gimnasio_Regional_de_Talca_2
 y_Universidad_Católica_CEB_Puerto_Montt_4_Gimnasio_Municipal_de_San_Fernando_2
 y_Universidad_Católica_CEB_Puerto_Montt_4_Estadio_Palestino_2
 y_Universidad_Católica_CEB_Puerto_Montt_4_Casa_del_Deporte_2
 y_Universidad_Católica_CEB_Puerto_Montt_4_Gimnasio_Municipal_de_Puente_Alto_2
 y_Universidad_Católica_CEB_Puerto_Montt_4_Coliseo_Municipal_Antonio_Azurmendy_2
 y_Universidad_Católica_CEB_Puerto_Montt_4_Gimnasio_Fiscal_de_Ancud_2
 y_Universidad_Católica_CEB_Puerto_Montt_4_Gimnasio_Monumental_María_Gallardo_2
 y_Universidad_Católica_CEB_Puerto_Montt_4_Gimnasio_Fiscal_de_Castro_2
 y_Universidad_Católica_CEB_Puerto_Montt_4_Gimnasio_de_Las_Ánimas_2
 y_Universidad_Católica_CEB_Puerto_Montt_4_Gimnasio_Municipal_Mario_Merchant_Binder_2
 y_Universidad_Católica_CEB_Puerto_Montt_5_Gimnasio_Colegio_Los_Leones_2
 y_Universidad_Católica_CEB_Puerto_Montt_5_Gimnasio_Regional_de_Talca_2
 y_Universidad_Católica_CEB_Puerto_Montt_5_Gimnasio_Municipal_de_San_Fernando_2
 y_Universidad_Católica_CEB_Puerto_Montt_5_Estadio_Palestino_2
 y_Universidad_Católica_CEB_Puerto_Montt_5_Casa_del_Deporte_2
 y_Universidad_Católica_CEB_Puerto_Montt_5_Gimnasio_Municipal_de_Puente_Alto_2
 y_Universidad_Católica_CEB_Puerto_Montt_5_Coliseo_Municipal_Antonio_Azurmendy_2
 y_Universidad_Católica_CEB_Puerto_Montt_5_Gimnasio_Fiscal_de_Ancud_2
 y_Universidad_Católica_CEB_Puerto_Montt_5_Gimnasio_Monumental_María_Gallardo_2
 y_Universidad_Católica_CEB_Puerto_Montt_5_Gimnasio_Fiscal_de_Castro_2
 y_Universidad_Católica_CEB_Puerto_Montt_5_Gimnasio_de_Las_Ánimas_2
 y_Universidad_Católica_CEB_Puerto_Montt_5_Gimnasio_Municipal_Mario_Merchant_Binder_2
 y_CEB_Puerto_Montt_Universidad_Católica_1_Gimnasio_Colegio_Los_Leones_2
 y_CEB_Puerto_Montt_Universidad_Católica_1_Gimnasio_Regional_de_Talca_2
 y_CEB_Puerto_Montt_Universidad_Católica_1_Gimnasio_Municipal_de_San_Fernando_2
 y_CEB_Puerto_Montt_Universidad_Católica_1_Estadio_Palestino_2
 y_CEB_Puerto_Montt_Universidad_Católica_1_Casa_del_Deporte_2
 y_CEB_Puerto_Montt_Universidad_Católica_1_Gimnasio_Municipal_de_Puente_Alto_2
 y_CEB_Puerto_Montt_Universidad_Católica_1_Coliseo_Municipal_Antonio_Azurmendy_2
 y_CEB_Puerto_Montt_Universidad_Católica_1_Gimnasio_Fiscal_de_Ancud_2
 y_CEB_Puerto_Montt_Universidad_Católica_1_Gimnasio_Monumental_María_Gallardo_2
 y_CEB_Puerto_Montt_Universidad_Católica_1_Gimnasio_Fiscal_de_Castro_2
 y_CEB_Puerto_Montt_Universidad_Católica_1_Gimnasio_de_Las_Ánimas_2
 y_CEB_Puerto_Montt_Universidad_Católica_1_Gimnasio_Municipal_Mario_Merchant_Binder_2
 y_CEB_Puerto_Montt_Universidad_Católica_2_Gimnasio_Colegio_Los_Leones_2
 y_CEB_Puerto_Montt_Universidad_Católica_2_Gimnasio_Regional_de_Talca_2
 y_CEB_Puerto_Montt_Universidad_Católica_2_Gimnasio_Municipal_de_San_Fernando_2
 y_CEB_Puerto_Montt_Universidad_Católica_2_Estadio_Palestino_2
 y_CEB_Puerto_Montt_Universidad_Católica_2_Casa_del_Deporte_2
 y_CEB_Puerto_Montt_Universidad_Católica_2_Gimnasio_Municipal_de_Puente_Alto_2
 y_CEB_Puerto_Montt_Universidad_Católica_2_Coliseo_Municipal_Antonio_Azurmendy_2
 y_CEB_Puerto_Montt_Universidad_Católica_2_Gimnasio_Fiscal_de_Ancud_2
 y_CEB_Puerto_Montt_Universidad_Católica_2_Gimnasio_Monumental_María_Gallardo_2
 y_CEB_Puerto_Montt_Universidad_Católica_2_Gimnasio_Fiscal_de_Castro_2
 y_CEB_Puerto_Montt_Universidad_Católica_2_Gimnasio_de_Las_Ánimas_2
 y_CEB_Puerto_Montt_Universidad_Católica_2_Gimnasio_Municipal_Mario_Merchant_Binder_2
 y_CEB_Puerto_Montt_Universidad_Católica_3_Gimnasio_Colegio_Los_Leones_2
 y_CEB_Puerto_Montt_Universidad_Católica_3_Gimnasio_Regional_de_Talca_2
 y_CEB_Puerto_Montt_Universidad_Católica_3_Gimnasio_Municipal_de_San_Fernando_2
 y_CEB_Puerto_Montt_Universidad_Católica_3_Estadio_Palestino_2
 y_CEB_Puerto_Montt_Universidad_Católica_3_Casa_del_Deporte_2
 y_CEB_Puerto_Montt_Universidad_Católica_3_Gimnasio_Municipal_de_Puente_Alto_2
 y_CEB_Puerto_Montt_Universidad_Católica_3_Coliseo_Municipal_Antonio_Azurmendy_2
 y_CEB_Puerto_Montt_Universidad_Católica_3_Gimnasio_Fiscal_de_Ancud_2
 y_CEB_Puerto_Montt_Universidad_Católica_3_Gimnasio_Monumental_María_Gallardo_2
 y_CEB_Puerto_Montt_Universidad_Católica_3_Gimnasio_Fiscal_de_Castro_2
 y_CEB_Puerto_Montt_Universidad_Católica_3_Gimnasio_de_Las_Ánimas_2
 y_CEB_Puerto_Montt_Universidad_Católica_3_Gimnasio_Municipal_Mario_Merchant_Binder_2
 y_CEB_Puerto_Montt_Universidad_Católica_4_Gimnasio_Colegio_Los_Leones_2
 y_CEB_Puerto_Montt_Universidad_Católica_4_Gimnasio_Regional_de_Talca_2
 y_CEB_Puerto_Montt_Universidad_Católica_4_Gimnasio_Municipal_de_San_Fernando_2
 y_CEB_Puerto_Montt_Universidad_Católica_4_Estadio_Palestino_2
 y_CEB_Puerto_Montt_Universidad_Católica_4_Casa_del_Deporte_2
 y_CEB_Puerto_Montt_Universidad_Católica_4_Gimnasio_Municipal_de_Puente_Alto_2
 y_CEB_Puerto_Montt_Universidad_Católica_4_Coliseo_Municipal_Antonio_Azurmendy_2
 y_CEB_Puerto_Montt_Universidad_Católica_4_Gimnasio_Fiscal_de_Ancud_2
 y_CEB_Puerto_Montt_Universidad_Católica_4_Gimnasio_Monumental_María_Gallardo_2
 y_CEB_Puerto_Montt_Universidad_Católica_4_Gimnasio_Fiscal_de_Castro_2
 y_CEB_Puerto_Montt_Universidad_Católica_4_Gimnasio_de_Las_Ánimas_2
 y_CEB_Puerto_Montt_Universidad_Católica_4_Gimnasio_Municipal_Mario_Merchant_Binder_2
 y_CEB_Puerto_Montt_Universidad_Católica_5_Gimnasio_Colegio_Los_Leones_2
 y_CEB_Puerto_Montt_Universidad_Católica_5_Gimnasio_Regional_de_Talca_2
 y_CEB_Puerto_Montt_Universidad_Católica_5_Gimnasio_Municipal_de_San_Fernando_2
 y_CEB_Puerto_Montt_Universidad_Católica_5_Estadio_Palestino_2
 y_CEB_Puerto_Montt_Universidad_Católica_5_Casa_del_Deporte_2
 y_CEB_Puerto_Montt_Universidad_Católica_5_Gimnasio_Municipal_de_Puente_Alto_2
 y_CEB_Puerto_Montt_Universidad_Católica_5_Coliseo_Municipal_Antonio_Azurmendy_2
 y_CEB_Puerto_Montt_Universidad_Católica_5_Gimnasio_Fiscal_de_Ancud_2
 y_CEB_Puerto_Montt_Universidad_Católica_5_Gimnasio_Monumental_María_Gallardo_2
 y_CEB_Puerto_Montt_Universidad_Católica_5_Gimnasio_Fiscal_de_Castro_2
 y_CEB_Puerto_Montt_Universidad_Católica_5_Gimnasio_de_Las_Ánimas_2
 y_CEB_Puerto_Montt_Universidad_Católica_5_Gimnasio_Municipal_Mario_Merchant_Binder_2
End
